NAME = SAfile180,
TOURSIZE = 180,
LENGTH = 1950,
49,101,26,94,48,81,112,65,100,143,146,127,126,162,79,93,8,21,42,138,46,40,147,15,61,38,50,4,32,113,57,142,98,91,1,11,63,179,166,106,19,17,68,20,122,134,13,80,121,118,89,168,14,60,85,82,72,62,137,24,44,114,111,110,105,69,67,131,76,53,31,141,27,54,28,73,33,125,58,180,176,103,96,170,164,90,136,18,2,156,97,10,34,3,39,75,167,95,92,160,165,115,120,7,178,47,51,30,109,108,144,133,25,88,102,129,154,87,86,56,157,139,152,29,16,12,45,172,116,158,135,52,43,149,150,132,6,22,175,173,174,130,84,35,107,171,64,66,36,37,23,70,77,128,155,41,83,55,124,123,153,159,78,74,163,145,104,177,169,117,151,161,59,148,9,5,140,71,119,99